NAME : n60w80.001.606.tour
COMMENT : Length = 606
COMMENT : Found by LKH [Keld Helsgaun] Tue May  2 05:46:15 2017
TYPE : TOUR
DIMENSION : 61
TOUR_SECTION
1
20
13
52
9
42
5
56
59
6
24
23
19
10
22
4
25
57
8
55
21
34
18
27
60
36
30
45
46
47
11
58
3
7
39
43
50
54
48
33
51
17
2
41
53
32
35
29
12
44
31
37
38
26
16
14
28
49
61
40
15
-1
EOF
